proyfinal/src/viki/013/andrea/andrea-localstore/experimentInOfficeAgust.take6/worker_11/347bfd80-d1e2-4f1e-8546-27c6a1f7b176.als.cnf.out
Reading from standard input... Use '--help' for help.
============================[ Problem Statistics ]=============================
|                                                                             |
|  Number of variables:         87638                                         |
|  Number of clauses:          161767                                         |
|  Parse time:                   0.04 s                                       |
|                                                                             |
============================[ Search Statistics ]==============================
| Conflicts |          ORIGINAL         |          LEARNT          | Progress |
|           |    Vars  Clauses Literals |    Limit  Clauses Lit/Cl |          |
===============================================================================
|       100 |   62058   103967   259846 |    38121      100     42 | 29.188 % |
|       250 |   62039   103964   259840 |    41933      248     80 | 29.210 % |
|       475 |   62039   103890   259669 |    46126      472     98 | 29.210 % |
|       812 |   62021   103816   259498 |    50739      808    123 | 29.230 % |
|      1318 |   47985    64893   163839 |    55813     1282    101 | 45.246 % |
|      2077 |   47642    64509   162921 |    61394     2036     77 | 45.638 % |
|      3216 |   47589    63535   160118 |    67534     2871     73 | 45.698 % |
|      4924 |   47179    61740   155807 |    74287     4548     63 | 46.166 % |
|      7486 |   46671    59706   150884 |    81716     6419     51 | 46.746 % |
===============================================================================
restarts              : 34
conflicts             : 8410           (8304 /sec)
decisions             : 31945          (0.00 % random) (31543 /sec)
propagations          : 12125731       (11973074 /sec)
conflict literals     : 402900         (42.63 % deleted)
Memory used           : 27.35 MB
CPU time              : 1.01275 s

UNSATISFIABLE
